l=1437;
a=5;
setup_costs=[|12,22,21,20,19,
|21,13,25,22,14,
|24,15,6,23,19,
|22,22,25,0,19,
|18,15,14,23,3,
|0,0,0,0,0|];
setup_times=[|6,15,17,16,16,
|16,5,23,17,16,
|20,17,5,23,25,
|23,24,20,9,18,
|23,22,23,15,1,
|0,0,0,0,0|];
m=2;
min_cap=[0,0];
max_cap=[21,100];

initState=[2,2];
s=2;
m_a_s = [|205,1288,
|0,350|];
m_a_e = [|1094,1432,
|0,1289|];
n=10;
eligible_machine = [{2,1},
{1},
{2,1},
{1},
{2,1},
{2},
{1,2},
{2,1},
{2},
{1,2}];
earliest_start=[157,170,81,165,64,254,255,207,102,2];
latest_end=[199,329,106,316,184,300,426,360,195,67];
min_time=[25,96,14,85,87,37,97,78,56,61];
max_time=[100,100,100,100,100,100,100,100,100,100];
size=[2,5,4,4,3,3,2,5,1,2];
attribute=[3,2,3,3,2,1,1,2,2,4];

upper_bound_integer_objective=1680000;
mult_factor_total_runtime=100;
mult_factor_finished_toolate=160000;
mult_factor_total_setuptimes=0;
mult_factor_total_setupcosts=64;
running_time_bound=636;
min_duration=14;
max_duration=97;
max_setup_time=25;
max_setup_cost=25;
